
Gurobi 9.0.1 (win64) logging started 11/11/21 23:05:39

Changed value of parameter LogFile to ../results/logs/log_2021_11_11_23_05.csv_2_250.log
   Prev:   Default: 
Changed value of parameter method to 3
   Prev: -1  Min: -1  Max: 5  Default: -1
Gurobi Optimizer version 9.0.1 build v9.0.1rc0 (win64)
Optimize a model with 39437 rows, 116456 columns and 145215 nonzeros
Model fingerprint: 0x9a8e9aab
Variable types: 58228 continuous, 58228 integer (58228 binary)
Coefficient statistics:
  Matrix range     [1e+00, 2e+00]
  Objective range  [1e+00, 1e+00]
  Bounds range     [1e+00, 1e+00]
  RHS range        [1e+00, 3e+02]
Found heuristic solution: objective 34706.000000
Presolve removed 38479 rows and 115102 columns
Presolve time: 0.13s
Presolved: 958 rows, 1354 columns, 3485 nonzeros
Variable types: 246 continuous, 1108 integer (850 binary)

Concurrent LP optimizer: dual simplex and barrier
Showing barrier log only...

Root barrier log...

Ordering time: 0.00s

Barrier statistics:
 AA' NZ     : 2.098e+03
 Factor NZ  : 3.640e+03 (roughly 1 MByte of memory)
 Factor Ops : 2.055e+04 (less than 1 second per iteration)
 Threads    : 1

                  Objective                Residual
Iter       Primal          Dual         Primal    Dual     Compl     Time
   0   4.11772520e+04  4.68170541e+04  1.25e+03 7.23e+00  1.22e+02     0s
   1   3.68707503e+04  5.12532538e+04  1.74e+02 1.60e-14  2.03e+01     0s
   2   3.50573441e+04  4.39517533e+04  9.84e-13 6.22e-15  2.43e+00     0s
   3   3.50947272e+04  3.54391909e+04  7.99e-13 5.33e-15  9.40e-02     0s
   4   3.52777522e+04  3.53166801e+04  5.36e-13 6.66e-16  1.06e-02     0s
   5   3.52913066e+04  3.52916170e+04  1.12e-12 6.80e-16  8.47e-05     0s
   6   3.52915000e+04  3.52915000e+04  4.73e-13 4.44e-16  4.00e-10     0s

Barrier solved model in 6 iterations and 0.17 seconds
Optimal objective 3.52915000e+04


Solved with dual simplex

Root relaxation: objective 3.529150e+04, 855 iterations, 0.01 seconds

    Nodes    |    Current Node    |     Objective Bounds      |     Work
 Expl Unexpl |  Obj  Depth IntInf | Incumbent    BestBd   Gap | It/Node Time

     0     0 35291.5000    0   49 34706.0000 35291.5000  1.69%     -    0s
H    0     0                    35253.000000 35291.5000  0.11%     -    0s
H    0     0                    35254.000000 35291.5000  0.11%     -    0s
     0     0 35281.0000    0   65 35254.0000 35281.0000  0.08%     -    0s
     0     0 35281.0000    0   46 35254.0000 35281.0000  0.08%     -    0s
H    0     0                    35261.000000 35281.0000  0.06%     -    0s
     0     0 35281.0000    0   66 35261.0000 35281.0000  0.06%     -    0s
     0     0 35281.0000    0   66 35261.0000 35281.0000  0.06%     -    0s
     0     2 35281.0000    0   66 35261.0000 35281.0000  0.06%     -    0s
H   55     6                    35267.000000 35270.8333  0.01%  47.2    0s

Cutting planes:
  Gomory: 48
  Implied bound: 195
  MIR: 126
  RLT: 35
  Relax-and-lift: 3

Explored 59 nodes (4830 simplex iterations) in 0.45 seconds
Thread count was 8 (of 8 available processors)

Solution count 5: 35267 35261 35254 ... 34706

Optimal solution found (tolerance 1.00e-04)
Best objective 3.526700000000e+04, best bound 3.527000000000e+04, gap 0.0085%
